NAME          
ROWS
 N  OBJ
 L  c1
 L  c2
COLUMNS
    MARKER    'MARKER'                 'INTORG'
    x[1]      c1        743
    x[1]      c2        716
    x[1]      OBJ       -244
    x[2]      c1        186
    x[2]      c2        849
    x[2]      OBJ       -32
    x[3]      c1        469
    x[3]      c2        940
    x[3]      OBJ       -774
    x[4]      c1        121
    x[4]      c2        528
    x[4]      OBJ       -751
    x[5]      c1        362
    x[5]      c2        338
    x[5]      OBJ       -894
    x[6]      c1        527
    x[6]      c2        531
    x[6]      OBJ       -604
    x[7]      c1        182
    x[7]      c2        864
    x[7]      OBJ       -826
    x[8]      c1        522
    x[8]      c2        508
    x[8]      OBJ       -948
    x[9]      c1        587
    x[9]      c2        878
    x[9]      OBJ       -976
    x[10]     c1        607
    x[10]     c2        801
    x[10]     OBJ       -535
    x[11]     c1        900
    x[11]     c2        950
    x[11]     OBJ       -581
    x[12]     c1        268
    x[12]     c2        499
    x[12]     OBJ       -575
    x[13]     c1        987
    x[13]     c2        964
    x[13]     OBJ       -669
    x[14]     c1        771
    x[14]     c2        300
    x[14]     OBJ       -581
    x[15]     c1        276
    x[15]     c2        260
    x[15]     OBJ       -20
    x[16]     c1        547
    x[16]     c2        979
    x[16]     OBJ       -42
    x[17]     c1        450
    x[17]     c2        570
    x[17]     OBJ       -446
    x[18]     c1        698
    x[18]     c2        406
    x[18]     OBJ       -954
    x[19]     c1        94
    x[19]     c2        28
    x[19]     OBJ       -61
    x[20]     c1        60
    x[20]     c2        77
    x[20]     OBJ       -65
    x[21]     c1        257
    x[21]     c2        936
    x[21]     OBJ       -246
    x[22]     c1        375
    x[22]     c2        212
    x[22]     OBJ       -895
    x[23]     c1        532
    x[23]     c2        107
    x[23]     OBJ       -313
    x[24]     c1        142
    x[24]     c2        272
    x[24]     OBJ       -916
    x[25]     c1        495
    x[25]     c2        835
    x[25]     OBJ       -398
    x[26]     c1        423
    x[26]     c2        516
    x[26]     OBJ       -565
    x[27]     c1        640
    x[27]     c2        988
    x[27]     OBJ       -156
    x[28]     c1        292
    x[28]     c2        174
    x[28]     OBJ       -367
    x[29]     c1        566
    x[29]     c2        473
    x[29]     OBJ       -170
    x[30]     c1        589
    x[30]     c2        586
    x[30]     OBJ       -96
    x[31]     c1        849
    x[31]     c2        955
    x[31]     OBJ       -585
    x[32]     c1        384
    x[32]     c2        622
    x[32]     OBJ       -18
    x[33]     c1        452
    x[33]     c2        292
    x[33]     OBJ       -800
    x[34]     c1        92
    x[34]     c2        362
    x[34]     OBJ       -492
    x[35]     c1        380
    x[35]     c2        72
    x[35]     OBJ       -311
    x[36]     c1        885
    x[36]     c2        764
    x[36]     OBJ       -827
    x[37]     c1        267
    x[37]     c2        590
    x[37]     OBJ       -884
    x[38]     c1        428
    x[38]     c2        756
    x[38]     OBJ       -801
    x[39]     c1        906
    x[39]     c2        612
    x[39]     OBJ       -877
    x[40]     c1        871
    x[40]     c2        662
    x[40]     OBJ       -769
    x[41]     c1        957
    x[41]     c2        955
    x[41]     OBJ       -765
    x[42]     c1        400
    x[42]     c2        154
    x[42]     OBJ       -677
    x[43]     c1        596
    x[43]     c2        478
    x[43]     OBJ       -319
    x[44]     c1        23
    x[44]     c2        601
    x[44]     OBJ       -88
    x[45]     c1        68
    x[45]     c2        390
    x[45]     OBJ       -695
    x[46]     c1        607
    x[46]     c2        789
    x[46]     OBJ       -121
    x[47]     c1        895
    x[47]     c2        739
    x[47]     OBJ       -674
    x[48]     c1        845
    x[48]     c2        700
    x[48]     OBJ       -328
    x[49]     c1        753
    x[49]     c2        846
    x[49]     OBJ       -377
    x[50]     c1        522
    x[50]     c2        796
    x[50]     OBJ       -624
RHS
    rhs       c1        12424
    rhs       c2        14610
RANGES
BOUNDS
 BV bounds    x[1]
 BV bounds    x[2]
 BV bounds    x[3]
 BV bounds    x[4]
 BV bounds    x[5]
 BV bounds    x[6]
 BV bounds    x[7]
 BV bounds    x[8]
 BV bounds    x[9]
 BV bounds    x[10]
 BV bounds    x[11]
 BV bounds    x[12]
 BV bounds    x[13]
 BV bounds    x[14]
 BV bounds    x[15]
 BV bounds    x[16]
 BV bounds    x[17]
 BV bounds    x[18]
 BV bounds    x[19]
 BV bounds    x[20]
 BV bounds    x[21]
 BV bounds    x[22]
 BV bounds    x[23]
 BV bounds    x[24]
 BV bounds    x[25]
 BV bounds    x[26]
 BV bounds    x[27]
 BV bounds    x[28]
 BV bounds    x[29]
 BV bounds    x[30]
 BV bounds    x[31]
 BV bounds    x[32]
 BV bounds    x[33]
 BV bounds    x[34]
 BV bounds    x[35]
 BV bounds    x[36]
 BV bounds    x[37]
 BV bounds    x[38]
 BV bounds    x[39]
 BV bounds    x[40]
 BV bounds    x[41]
 BV bounds    x[42]
 BV bounds    x[43]
 BV bounds    x[44]
 BV bounds    x[45]
 BV bounds    x[46]
 BV bounds    x[47]
 BV bounds    x[48]
 BV bounds    x[49]
 BV bounds    x[50]
ENDATA
